
n = 8; % the number of jobs
m = 2; % the number of cores

% cpi values of each job
cpi = [
2.325282,2.696614,2.334887,2.619678,
1.392190,0.631348,2.144573,2.097855
];

feature_idx = [|
-1, -2, -2, -2, -2, -2, -2, -2, -2, -2, -2, -2, -2, -2, -2, -2, -2, -2, -2, -2, -2, -2, -2, -2, -2, -2, -2,|
1, 3, -1, 2, -1, -1, -1, -2, -2, -2, -2, -2, -2, -2, -2, -2, -2, -2, -2, -2, -2, -2, -2, -2, -2, -2, -2,|];

feature_rel = [|
LEAF, DUM, DUM, DUM, DUM, DUM, DUM, DUM, DUM, DUM, DUM, DUM, DUM, DUM, DUM, DUM, DUM, DUM, DUM, DUM, DUM, DUM, DUM, DUM, DUM, DUM, DUM,|
LE, LE, LEAF, LE, LEAF, LEAF, LEAF, DUM, DUM, DUM, DUM, DUM, DUM, DUM, DUM, DUM, DUM, DUM, DUM, DUM, DUM, DUM, DUM, DUM, DUM, DUM, DUM,|];

feature_val = [|
-1, -2, -2, -2, -2, -2, -2, -2, -2, -2, -2, -2, -2, -2, -2, -2, -2, -2, -2, -2, -2, -2, -2, -2, -2, -2, -2,|
0.695117, 9.148936, -1, 2.000000, -1, -1, -1, -2, -2, -2, -2, -2, -2, -2, -2, -2, -2, -2, -2, -2, -2, -2, -2, -2, -2, -2, -2,|];

child = [|
-1, -2, -2, -2, -2, -2, -2, -2, -2, -2, -2, -2, -2, -2, -2, -2, -2, -2, -2, -2, -2, -2, -2, -2, -2, -2, -2,|
2, 4, -1, 6, -1, -1, -1, -2, -2, -2, -2, -2, -2, -2, -2, -2, -2, -2, -2, -2, -2, -2, -2, -2, -2, -2, -2,|];

val = [|
1, -2, -2, -2, -2, -2, -2, -2, -2, -2, -2, -2, -2, -2, -2, -2, -2, -2, -2, -2, -2, -2, -2, -2, -2, -2, -2,|
-1, -1, 1, -1, 1, 0, 1, -2, -2, -2, -2, -2, -2, -2, -2, -2, -2, -2, -2, -2, -2, -2, -2, -2, -2, -2, -2,|];


